Route #1:
Route #2: 27
Route #3: 5 7 15 4
Route #4: 12
Route #5: 24
Route #6: 9 18 29 2
Route #7: 10 3 19 23 22 21
Route #8: 6 11 28 26 30 13
Route #9: 25 20 16 1 17
Route #10: 31 8 14

Cost: 2135.272878938917
